c preprocessed version of miles500, 92 vertices, 1005 edges
p td 92 1005
0 1
0 36
0 49
0 46
0 57
0 7
0 56
0 9
0 66
0 50
0 65
0 58
0 47
0 4
0 48
0 2
2 1
48 1
4 1
47 1
65 1
56 1
57 1
3 1
70 1
2 3
2 49
2 46
2 57
2 7
2 56
2 9
2 66
2 65
2 47
2 4
2 48
67 2
70 2
4 3
48 3
47 3
65 3
56 3
57 3
4 5
4 35
48 4
4 36
4 49
4 46
4 57
4 56
4 66
4 65
4 34
4 58
4 47
6 5
47 5
35 5
58 5
34 5
51 5
33 5
60 5
62 5
59 5
61 5
63 5
6 7
6 9
12 6
6 14
6 45
6 36
6 49
6 46
6 44
6 52
6 54
6 55
6 66
6 50
6 51
6 20
6 37
6 35
6 21
6 31
6 18
6 11
6 19
8 7
50 7
66 7
9 7
56 7
7 14
7 10
7 45
7 36
7 49
7 46
67 7
68 7
69 7
74 7
71 7
8 9
8 10
11 8
12 8
8 14
15 8
8 17
18 8
20 8
8 49
8 45
8 36
8 46
8 44
8 66
8 50
68 8
69 8
72 8
74 8
71 8
73 8
75 8
9 10
11 9
51 9
50 9
66 9
55 9
9 14
9 45
9 36
9 49
9 46
9 56
69 9
74 9
71 9
11 10
18 10
50 10
66 10
44 10
36 10
45 10
68 10
69 10
72 10
74 10
71 10
73 10
75 10
12 11
11 14
15 11
11 17
11 45
11 36
11 44
11 54
11 50
11 20
11 21
11 18
72 11
74 11
71 11
73 11
75 11
13 12
12 14
12 22
12 28
12 30
12 45
12 36
12 17
12 44
12 43
12 52
12 54
12 55
12 51
12 20
12 37
12 42
12 21
12 31
12 18
12 19
12 15
12 16
73 12
75 12
13 14
13 22
13 28
13 30
13 17
13 43
13 52
13 54
13 55
13 20
13 37
13 42
13 21
13 31
13 18
13 19
13 15
13 16
15 14
19 14
18 14
31 14
21 14
35 14
37 14
20 14
51 14
50 14
55 14
54 14
52 14
43 14
44 14
17 14
46 14
36 14
45 14
28 14
75 14
16 15
15 45
15 17
15 44
15 54
15 55
15 20
15 21
15 18
72 15
74 15
71 15
73 15
75 15
16 17
16 44
16 43
16 54
16 20
16 21
16 31
16 18
16 19
18 17
21 17
20 17
54 17
44 17
17 45
72 17
74 17
71 17
73 17
75 17
19 18
18 30
18 45
18 36
18 44
18 43
18 52
18 54
18 55
18 50
18 51
18 20
18 37
18 42
18 21
18 31
71 18
73 18
75 18
19 20
23 19
25 19
19 22
19 28
19 30
19 32
19 38
19 44
19 43
19 52
19 54
19 55
19 51
19 41
19 53
19 37
19 42
19 21
19 31
19 29
21 20
37 20
20 45
20 44
20 54
20 55
20 51
74 20
71 20
73 20
75 20
21 22
21 28
21 30
21 37
21 38
21 45
29 21
31 21
21 44
21 43
21 52
21 54
21 55
21 51
21 53
21 42
23 22
22 24
26 22
25 22
27 22
29 22
31 22
42 22
37 22
53 22
41 22
51 22
55 22
54 22
52 22
39 22
43 22
38 22
32 22
30 22
28 22
23 24
23 28
23 30
23 32
23 26
23 38
23 33
23 39
23 52
23 40
23 41
23 53
23 37
23 42
23 31
23 29
23 27
23 25
25 24
27 24
29 24
37 24
41 24
40 24
52 24
39 24
33 24
38 24
26 24
32 24
30 24
28 24
60 24
62 24
61 24
63 24
25 26
25 33
25 28
25 30
25 32
25 38
25 39
25 52
25 40
25 41
25 53
25 42
25 31
25 29
25 27
27 26
29 26
41 26
40 26
39 26
33 26
38 26
26 28
26 32
60 26
62 26
63 26
27 28
27 30
27 32
27 33
27 39
27 40
27 41
27 53
27 42
27 29
29 28
31 28
42 28
37 28
53 28
41 28
51 28
55 28
54 28
52 28
39 28
43 28
38 28
32 28
30 28
29 30
29 32
29 37
29 31
29 39
29 38
29 43
29 52
29 54
29 55
29 51
29 41
29 53
29 42
31 30
42 30
37 30
53 30
41 30
51 30
55 30
54 30
52 30
39 30
43 30
38 30
32 30
31 32
31 37
31 44
31 38
31 43
31 52
31 54
31 55
31 51
31 41
31 53
31 42
33 32
42 32
37 32
53 32
41 32
40 32
52 32
39 32
38 32
34 33
41 33
40 33
39 33
33 38
60 33
62 33
59 33
64 33
61 33
63 33
35 34
47 34
58 34
60 34
62 34
59 34
64 34
61 34
63 34
35 36
47 35
35 46
35 57
35 55
35 51
35 58
59 35
61 35
63 35
37 36
49 36
36 45
51 36
50 36
66 36
55 36
56 36
46 36
71 36
75 36
37 38
42 37
37 43
37 44
37 52
37 54
37 55
37 51
37 41
37 53
39 38
40 38
42 38
53 38
41 38
51 38
55 38
54 38
52 38
43 38
63 38
40 39
42 39
53 39
41 39
62 39
41 40
60 40
62 40
64 40
61 40
63 40
42 41
53 41
41 52
62 41
63 41
42 43
42 53
42 52
42 54
42 55
42 51
43 44
53 43
51 43
55 43
54 43
52 43
44 45
51 44
50 44
55 44
54 44
52 44
74 44
71 44
73 44
75 44
46 45
51 45
50 45
55 45
54 45
72 45
74 45
71 45
73 45
75 45
47 46
46 49
50 46
58 46
51 46
66 46
55 46
56 46
57 46
48 47
47 49
47 57
47 56
47 65
47 58
48 49
48 57
48 56
48 66
48 65
48 58
50 49
66 49
56 49
57 49
51 50
50 56
50 55
50 66
74 50
71 50
73 50
75 50
51 52
51 54
51 55
53 52
55 52
54 52
53 54
55 54
56 57
58 56
65 56
66 56
58 57
65 57
66 57
59 58
60 59
62 59
59 61
59 63
59 64
60 61
60 63
60 64
60 62
62 61
64 61
61 63
62 63
62 64
64 63
67 66
69 66
71 66
67 68
67 69
67 70
68 69
70 68
70 69
72 71
74 71
71 75
71 73
72 73
72 75
72 74
74 73
73 75
74 75
76 19
76 22
76 23
76 24
76 25
76 26
76 28
76 90
76 89
76 30
76 32
76 88
76 39
76 52
76 87
76 86
76 85
76 41
76 53
76 37
76 42
76 84
76 83
76 82
76 31
76 81
76 29
76 27
76 80
76 91
76 79
76 78
76 77
77 22
77 23
77 24
77 25
77 26
77 28
77 90
77 89
77 30
77 32
77 88
77 39
77 87
77 40
77 86
77 85
77 41
77 53
77 42
77 84
77 83
77 82
77 31
77 81
77 29
77 27
77 80
77 91
77 79
77 78
78 22
78 23
78 25
78 28
78 90
78 89
78 30
78 32
78 88
78 39
78 87
78 86
78 85
78 53
78 42
78 84
78 83
78 82
78 31
78 81
78 29
78 27
78 80
78 91
78 79
79 19
79 22
79 23
79 24
79 25
79 26
79 28
79 90
79 89
79 30
79 32
79 88
79 39
79 52
79 87
79 40
79 86
79 85
79 41
79 53
79 42
79 84
79 83
79 82
79 31
79 81
79 29
79 27
79 80
79 91
80 91
80 22
80 23
80 24
80 25
80 26
80 28
80 90
80 89
80 30
80 32
80 27
80 88
80 39
80 87
80 86
80 85
80 41
80 53
80 42
80 84
80 83
80 82
80 81
80 29
81 91
81 22
81 25
81 28
81 90
81 89
81 30
81 32
81 27
81 88
81 31
81 29
81 42
81 82
81 86
81 53
81 87
81 85
81 84
81 83
82 91
82 19
82 22
82 23
82 25
82 26
82 28
82 90
82 89
82 30
82 32
82 27
82 88
82 31
82 29
82 39
82 42
82 41
82 86
82 87
82 85
82 53
82 84
82 83
83 91
83 19
83 22
83 23
83 25
83 28
83 90
83 89
83 30
83 32
83 27
83 88
83 31
83 29
83 39
83 42
83 86
83 53
83 87
83 85
83 84
84 91
84 22
84 23
84 25
84 90
84 89
84 32
84 27
84 88
84 29
84 39
84 86
84 53
84 87
84 85
85 91
85 22
85 23
85 25
85 90
85 89
85 30
85 32
85 27
85 88
85 29
85 39
85 42
85 86
85 53
85 87
86 91
86 13
86 19
86 21
86 22
86 28
86 90
86 89
86 30
86 32
86 88
86 37
86 31
86 29
86 42
86 43
86 87
86 53
86 52
86 54
87 91
87 25
87 90
87 89
87 32
87 27
87 88
87 39
87 53
88 91
88 19
88 22
88 23
88 25
88 28
88 90
88 89
88 30
88 32
88 27
88 37
88 29
88 31
88 42
88 53
88 52
88 39
88 43
89 91
89 22
89 23
89 25
89 26
89 28
89 90
89 27
89 29
89 31
89 42
89 53
89 41
89 39
89 32
89 30
90 91
90 25
90 27
90 53
90 32
91 25
91 32
91 27
91 53
